70
1688
10
69
12
65
65
67
59
66
34
79
11
0 2
0 4
0 5
0 6
0 7
0 8
0 9
0 10
0 12
0 13
0 14
0 15
0 17
0 18
0 19
0 20
0 21
0 22
0 23
0 24
0 25
0 29
0 30
0 31
0 32
0 33
0 34
0 37
0 38
0 39
0 41
0 42
0 43
0 44
0 45
0 46
0 50
0 51
0 52
0 53
0 57
0 59
0 60
0 62
0 63
0 64
0 65
0 66
0 67
0 68
0 69
1 2
1 4
1 5
1 6
1 7
1 8
1 10
1 11
1 12
1 14
1 16
1 17
1 19
1 20
1 23
1 24
1 25
1 26
1 27
1 30
1 31
1 32
1 33
1 34
1 35
1 36
1 38
1 39
1 41
1 42
1 45
1 46
1 48
1 52
1 53
1 57
1 58
1 59
1 60
1 61
1 62
1 63
1 64
1 65
1 66
1 67
2 4
2 6
2 7
2 11
2 14
2 15
2 18
2 20
2 22
2 23
2 24
2 25
2 26
2 27
2 28
2 30
2 32
2 33
2 35
2 37
2 38
2 39
2 40
2 42
2 43
2 45
2 48
2 49
2 51
2 52
2 54
2 55
2 56
2 58
2 59
2 60
2 62
2 66
2 67
2 68
2 69
3 4
3 6
3 7
3 9
3 10
3 11
3 14
3 16
3 17
3 18
3 21
3 24
3 25
3 26
3 30
3 31
3 33
3 34
3 35
3 37
3 39
3 40
3 41
3 43
3 44
3 47
3 48
3 49
3 51
3 52
3 53
3 54
3 55
3 56
3 57
3 61
3 63
3 65
3 66
3 69
4 5
4 6
4 7
4 8
4 10
4 12
4 13
4 14
4 17
4 18
4 19
4 20
4 21
4 22
4 23
4 24
4 25
4 26
4 27
4 28
4 30
4 31
4 32
4 33
4 34
4 35
4 38
4 39
4 41
4 42
4 44
4 45
4 46
4 47
4 48
4 50
4 53
4 55
4 56
4 58
4 59
4 60
4 61
4 62
4 64
4 66
4 69
5 7
5 8
5 9
5 10
5 11
5 14
5 15
5 16
5 17
5 19
5 20
5 21
5 23
5 24
5 25
5 26
5 27
5 30
5 33
5 34
5 36
5 37
5 38
5 39
5 40
5 42
5 43
5 46
5 47
5 48
5 49
5 50
5 51
5 54
5 57
5 58
5 59
5 62
5 64
5 65
5 66
5 67
5 68
5 69
6 7
6 8
6 9
6 10
6 13
6 16
6 18
6 19
6 20
6 22
6 23
6 24
6 25
6 28
6 29
6 31
6 32
6 34
6 35
6 37
6 38
6 39
6 40
6 41
6 43
6 44
6 45
6 48
6 49
6 51
6 53
6 54
6 55
6 56
6 57
6 58
6 59
6 60
6 61
6 62
6 63
6 64
6 65
6 67
6 68
6 69
7 8
7 10
7 11
7 12
7 13
7 15
7 16
7 17
7 20
7 21
7 24
7 25
7 28
7 29
7 30
7 31
7 32
7 33
7 34
7 36
7 37
7 39
7 41
7 42
7 43
7 44
7 45
7 47
7 48
7 49
7 50
7 52
7 53
7 54
7 55
7 56
7 57
7 58
7 59
7 60
7 61
7 62
7 63
7 64
7 65
7 66
7 67
7 68
7 69
8 9
8 12
8 13
8 14
8 17
8 18
8 20
8 23
8 24
8 25
8 28
8 29
8 30
8 31
8 32
8 33
8 35
8 36
8 38
8 39
8 40
8 41
8 45
8 47
8 50
8 51
8 52
8 53
8 54
8 55
8 57
8 58
8 59
8 63
8 64
8 66
8 67
9 10
9 12
9 13
9 18
9 19
9 21
9 23
9 25
9 26
9 27
9 29
9 30
9 31
9 32
9 33
9 35
9 36
9 37
9 39
9 40
9 41
9 42
9 43
9 44
9 45
9 47
9 48
9 49
9 51
9 52
9 55
9 56
9 57
9 58
9 59
9 60
9 62
9 65
9 66
9 69
10 12
10 14
10 15
10 16
10 17
10 19
10 20
10 21
10 23
10 24
10 25
10 26
10 28
10 29
10 31
10 32
10 33
10 34
10 37
10 40
10 41
10 42
10 43
10 44
10 47
10 48
10 49
10 50
10 51
10 52
10 53
10 54
10 55
10 56
10 57
10 58
10 60
10 63
10 64
10 65
10 66
10 67
10 68
11 12
11 13
11 15
11 16
11 18
11 19
11 24
11 27
11 28
11 29
11 31
11 35
11 37
11 38
11 40
11 41
11 42
11 43
11 44
11 45
11 46
11 47
11 48
11 49
11 50
11 51
11 52
11 54
11 55
11 56
11 57
11 58
11 60
11 62
11 65
11 66
11 67
11 68
11 69
12 13
12 14
12 15
12 16
12 17
12 18
12 20
12 21
12 22
12 25
12 28
12 29
12 30
12 31
12 33
12 34
12 35
12 38
12 39
12 40
12 41
12 42
12 43
12 44
12 46
12 47
12 48
12 49
12 50
12 51
12 52
12 54
12 55
12 57
12 58
12 59
12 60
12 61
12 63
12 64
12 65
12 66
12 67
12 68
12 69
13 14
13 15
13 16
13 17
13 18
13 19
13 22
13 23
13 24
13 25
13 26
13 27
13 28
13 29
13 31
13 32
13 33
13 34
13 35
13 36
13 38
13 41
13 43
13 44
13 45
13 47
13 48
13 49
13 50
13 52
13 53
13 54
13 58
13 59
13 60
13 63
13 64
13 65
13 66
13 67
13 68
13 69
14 16
14 17
14 18
14 19
14 22
14 23
14 24
14 25
14 26
14 27
14 30
14 33
14 35
14 37
14 38
14 39
14 40
14 41
14 42
14 44
14 45
14 47
14 48
14 49
14 50
14 51
14 52
14 53
14 54
14 56
14 57
14 58
14 59
14 60
14 61
14 62
14 65
14 66
14 69
15 16
15 17
15 22
15 23
15 24
15 25
15 26
15 30
15 34
15 35
15 36
15 37
15 38
15 39
15 40
15 41
15 43
15 44
15 46
15 50
15 51
15 52
15 53
15 56
15 57
15 58
15 60
15 61
15 62
15 63
15 65
15 67
16 19
16 20
16 21
16 22
16 23
16 27
16 28
16 30
16 31
16 32
16 34
16 35
16 36
16 37
16 39
16 40
16 41
16 43
16 45
16 46
16 47
16 48
16 49
16 50
16 51
16 53
16 54
16 55
16 57
16 59
16 61
16 63
16 64
16 66
16 67
16 68
16 69
17 18
17 20
17 21
17 25
17 26
17 27
17 30
17 31
17 34
17 36
17 37
17 38
17 39
17 41
17 42
17 43
17 45
17 47
17 48
17 49
17 52
17 54
17 55
17 56
17 58
17 59
17 60
17 62
17 65
17 67
17 69
18 19
18 20
18 21
18 24
18 25
18 26
18 27
18 29
18 32
18 37
18 38
18 39
18 41
18 42
18 43
18 44
18 45
18 50
18 52
18 53
18 54
18 55
18 57
18 58
18 59
18 60
18 61
18 62
18 64
18 65
18 66
18 68
18 69
19 20
19 21
19 22
19 26
19 27
19 28
19 29
19 32
19 33
19 34
19 37
19 38
19 40
19 41
19 42
19 43
19 45
19 47
19 48
19 49
19 50
19 51
19 52
19 53
19 54
19 55
19 56
19 57
19 59
19 60
19 61
19 62
19 63
19 64
19 65
19 67
19 68
19 69
20 21
20 22
20 24
20 25
20 27
20 28
20 30
20 31
20 32
20 33
20 34
20 35
20 37
20 38
20 39
20 40
20 43
20 44
20 45
20 47
20 48
20 49
20 51
20 52
20 54
20 55
20 56
20 58
20 60
20 61
20 62
20 63
20 64
20 65
20 67
20 69
21 22
21 23
21 24
21 26
21 27
21 28
21 30
21 31
21 33
21 34
21 35
21 36
21 37
21 39
21 40
21 42
21 43
21 44
21 45
21 46
21 47
21 48
21 49
21 51
21 52
21 54
21 55
21 57
21 58
21 59
21 60
21 62
21 63
21 64
21 65
21 66
21 67
21 68
22 23
22 24
22 25
22 26
22 28
22 29
22 30
22 31
22 32
22 34
22 37
22 40
22 41
22 42
22 43
22 44
22 45
22 47
22 51
22 54
22 56
22 59
22 60
22 62
22 63
22 64
22 67
22 68
22 69
23 25
23 26
23 28
23 30
23 31
23 32
23 34
23 35
23 36
23 38
23 39
23 40
23 42
23 45
23 46
23 50
23 51
23 52
23 53
23 54
23 55
23 57
23 58
23 59
23 60
23 61
23 64
23 65
23 66
23 68
24 26
24 27
24 29
24 30
24 31
24 32
24 33
24 35
24 36
24 38
24 39
24 40
24 42
24 43
24 44
24 45
24 46
24 48
24 49
24 50
24 51
24 56
24 57
24 58
24 61
24 63
24 64
24 67
24 68
25 26
25 28
25 30
25 32
25 33
25 34
25 35
25 36
25 38
25 44
25 45
25 46
25 49
25 50
25 52
25 53
25 55
25 56
25 57
25 59
25 60
25 61
25 62
25 63
25 65
25 66
25 67
25 68
25 69
26 28
26 30
26 31
26 32
26 33
26 35
26 36
26 37
26 38
26 39
26 40
26 41
26 42
26 43
26 44
26 45
26 46
26 47
26 48
26 49
26 50
26 51
26 55
26 56
26 57
26 58
26 59
26 61
26 62
26 63
26 64
26 65
26 66
26 67
27 30
27 31
27 33
27 34
27 35
27 36
27 38
27 39
27 40
27 41
27 42
27 43
27 44
27 45
27 47
27 49
27 50
27 51
27 52
27 53
27 55
27 56
27 57
27 58
27 59
27 61
27 62
27 63
27 65
27 66
27 69
28 29
28 30
28 32
28 34
28 35
28 37
28 38
28 40
28 41
28 42
28 43
28 44
28 47
28 48
28 49
28 50
28 53
28 55
28 56
28 57
28 60
28 61
28 62
28 65
28 66
28 67
28 68
28 69
29 31
29 33
29 34
29 35
29 37
29 38
29 39
29 40
29 41
29 42
29 44
29 45
29 46
29 47
29 48
29 50
29 51
29 52
29 53
29 54
29 55
29 56
29 57
29 59
29 60
29 61
29 62
29 63
29 64
29 65
29 67
29 68
29 69
30 31
30 32
30 34
30 35
30 37
30 38
30 39
30 40
30 41
30 42
30 43
30 44
30 46
30 47
30 49
30 50
30 51
30 53
30 54
30 56
30 59
30 60
30 62
31 32
31 33
31 36
31 37
31 38
31 40
31 41
31 42
31 43
31 45
31 47
31 48
31 49
31 50
31 51
31 52
31 54
31 56
31 57
31 59
31 60
31 62
31 63
31 64
31 66
31 68
32 33
32 34
32 35
32 37
32 38
32 39
32 40
32 43
32 44
32 45
32 46
32 47
32 48
32 50
32 51
32 54
32 55
32 56
32 61
32 63
32 64
32 65
32 67
32 68
32 69
33 35
33 36
33 38
33 39
33 40
33 41
33 42
33 43
33 44
33 46
33 50
33 53
33 54
33 55
33 56
33 58
33 59
33 60
33 61
33 63
33 65
33 66
33 67
33 69
34 35
34 36
34 37
34 39
34 40
34 41
34 42
34 45
34 48
34 49
34 50
34 52
34 53
34 54
34 55
34 56
34 58
34 59
34 61
34 62
34 63
34 64
34 65
34 67
34 68
34 69
35 38
35 40
35 41
35 42
35 43
35 44
35 46
35 47
35 48
35 50
35 51
35 52
35 53
35 55
35 57
35 58
35 59
35 60
35 63
35 64
35 65
35 66
35 67
35 68
35 69
36 37
36 38
36 39
36 40
36 41
36 42
36 44
36 45
36 46
36 47
36 49
36 50
36 51
36 52
36 53
36 54
36 55
36 56
36 57
36 58
36 59
36 61
36 62
36 63
36 65
36 66
36 67
36 68
37 38
37 39
37 41
37 42
37 43
37 45
37 46
37 48
37 49
37 52
37 53
37 54
37 56
37 58
37 60
37 61
37 62
37 63
37 66
37 68
38 40
38 41
38 43
38 44
38 45
38 46
38 47
38 48
38 49
38 50
38 51
38 53
38 54
38 55
38 56
38 57
38 59
38 61
38 62
38 64
38 66
38 69
39 40
39 41
39 42
39 44
39 46
39 49
39 50
39 51
39 52
39 53
39 54
39 55
39 56
39 59
39 61
39 62
39 63
39 64
39 65
39 66
39 67
39 68
40 45
40 46
40 47
40 48
40 49
40 50
40 51
40 52
40 53
40 54
40 56
40 60
40 61
40 62
40 63
40 64
40 66
40 67
40 68
41 42
41 43
41 44
41 45
41 47
41 49
41 50
41 52
41 54
41 56
41 57
41 58
41 61
41 64
41 66
41 67
41 68
41 69
42 43
42 44
42 46
42 47
42 48
42 49
42 50
42 51
42 53
42 54
42 55
42 56
42 57
42 60
42 62
42 63
42 64
42 65
42 66
42 67
42 68
42 69
43 47
43 49
43 50
43 51
43 52
43 54
43 57
43 58
43 60
43 61
43 62
43 63
43 64
43 65
43 66
43 67
43 68
44 46
44 47
44 48
44 49
44 50
44 51
44 52
44 53
44 54
44 56
44 57
44 59
44 60
44 61
44 62
44 63
44 64
44 65
44 67
44 68
44 69
45 46
45 48
45 50
45 51
45 52
45 53
45 55
45 56
45 58
45 59
45 60
45 61
45 62
45 63
45 65
45 66
45 67
45 68
45 69
46 47
46 48
46 50
46 51
46 52
46 53
46 56
46 58
46 59
46 60
46 62
46 63
46 65
46 66
46 68
47 48
47 50
47 52
47 53
47 54
47 56
47 57
47 59
47 60
47 61
47 62
47 63
47 64
47 65
47 66
47 67
48 50
48 51
48 52
48 54
48 55
48 57
48 58
48 59
48 61
48 62
48 63
48 64
48 68
48 69
49 50
49 51
49 52
49 53
49 54
49 55
49 57
49 58
49 60
49 61
49 62
49 63
49 64
49 66
49 67
49 68
50 51
50 52
50 53
50 54
50 55
50 58
50 59
50 60
50 64
50 66
50 67
50 68
51 52
51 53
51 54
51 55
51 56
51 57
51 59
51 61
51 62
51 65
51 66
51 67
51 69
52 53
52 54
52 55
52 56
52 58
52 59
52 60
52 61
52 62
52 63
52 64
52 65
52 67
52 68
53 54
53 55
53 61
53 63
53 64
53 65
53 66
53 67
54 56
54 57
54 58
54 60
54 61
54 63
54 64
54 65
54 66
54 67
54 68
54 69
55 56
55 57
55 58
55 59
55 60
55 61
55 62
55 64
55 66
56 57
56 58
56 59
56 61
56 62
56 65
56 67
56 68
56 69
57 60
57 61
57 62
57 63
57 65
57 66
57 68
57 69
58 59
58 60
58 61
58 62
58 63
58 64
58 66
58 68
58 69
59 60
59 62
59 64
59 65
59 67
59 68
59 69
60 62
60 63
60 64
60 65
60 67
60 68
61 62
61 63
61 64
61 66
61 67
61 68
62 63
62 65
62 66
62 67
62 68
62 69
63 64
63 67
63 68
64 65
64 66
64 67
64 68
65 66
65 67
65 68
65 69
66 67
66 69
68 69
39 64 37 53 13 47 42
35 2 60 1 36 51 61
41 68 38 25 14 3 67
49 66 15 58 10 16 34
0 22 55 21 69 65 18
31 59 63 52 45 40 17
32 44 48 56 30 6 43
29 57 11 28 62 50 23
5 33 46 27 54 9 26
19 24 12 8 4 20 7
